HUN,8,6,636
4,1,3,19,2,22,0,15,5,14,1,7
1,13,2,2,3,27,4,18,5,16,0,7
5,9,0,10,2,12,4,7,1,3,3,15
2,10,4,29,0,1,5,4,1,12,3,2
1,2,4,7,0,18,3,30,5,14,2,27
1,15,4,6,0,12,2,26,5,11,3,2
2,4,0,17,4,11,5,16,3,10,1,22
4,11,0,18,1,13,5,15,3,19,2,11
